4044
13943
11473
4145
13723
3617
2224
14442
15216
4686
4323
9152
6091
9836
10377
13248
6500
7637
696
2563
12872
10203
5242
9998
8146
9905
2348
3283
17972
18938
21449
7889
5178
11432
5371
7926
5808
12650
7989
4725
18475
5112
22098
8634
5054
14520
5579
4393
5825
21655
20880
10941
6750
4866
4346
7663
12679
22431
20288
11653
26339
6993
3432
3818
9843
2616
2373
13200
10898
2057
12154
7689
14664
18494
16237
12086
11456
15340
10102
16186
7932
13597
3415
3873
19883
7660
10509
19641
6192
9802
6942
2579
4095
2441
2598
8304
4250
4477
14744
